NAME          ClpDefau  FREE
ROWS
 N  OBJROW
 L  ZMUNI1_PCT
 L  ZMUNI2_PCT
 L  ZMUNI3_PCT
 L  ZMUNI4_PCT
 L  ZMUNI5_PCT
 L  ZMUNI6_PCT
 L  ZMUNI7_PCT
 L  ZMUNI8_PCT
 L  ZMUNI9_PCT
COLUMNS
    QMUNI1 OBJROW 1.          
    QMUNI1 ZMUNI1_PCT 28970.9092  
    QMUNI1 ZMUNI2_PCT 1820.9458   
    QMUNI1 ZMUNI3_PCT 4209.1369   
    QMUNI1 ZMUNI4_PCT 3100.7767   
    QMUNI1 ZMUNI5_PCT  -70.1904   
    QMUNI1 ZMUNI6_PCT 154.6859    
    QMUNI1 ZMUNI7_PCT 1789.093    
    QMUNI1 ZMUNI8_PCT 1455.4978   
    QMUNI1 ZMUNI9_PCT 711.2503    
    QMUNI2 OBJROW 1.          
    QMUNI2 ZMUNI1_PCT 1787.5672   
    QMUNI2 ZMUNI2_PCT 34501.8387  
    QMUNI2 ZMUNI3_PCT 2595.9015   
    QMUNI2 ZMUNI4_PCT 2765.6555   
    QMUNI2 ZMUNI5_PCT 123.787     
    QMUNI2 ZMUNI6_PCT 225.4486    
    QMUNI2 ZMUNI7_PCT 1078.0334   
    QMUNI2 ZMUNI8_PCT 1279.4495   
    QMUNI2 ZMUNI9_PCT 1206.9702   
    QMUNI3 OBJROW 1.          
    QMUNI3 ZMUNI1_PCT 4208.1833   
    QMUNI3 ZMUNI2_PCT 2705.574    
    QMUNI3 ZMUNI3_PCT 30559.1583  
    QMUNI3 ZMUNI4_PCT 5156.517    
    QMUNI3 ZMUNI5_PCT 162.3154    
    QMUNI3 ZMUNI6_PCT 323.2955    
    QMUNI3 ZMUNI7_PCT 1734.9243   
    QMUNI3 ZMUNI8_PCT 1617.4317   
    QMUNI3 ZMUNI9_PCT 934.2193    
    QMUNI4 OBJROW 1.          
    QMUNI4 ZMUNI1_PCT 3473.4726   
    QMUNI4 ZMUNI2_PCT 3169.8227   
    QMUNI4 ZMUNI3_PCT 5642.5094   
    QMUNI4 ZMUNI4_PCT 108537.0064 
    QMUNI4 ZMUNI5_PCT 608.2535    
    QMUNI4 ZMUNI6_PCT 690.2694    
    QMUNI4 ZMUNI7_PCT 1669.3115   
    QMUNI4 ZMUNI8_PCT 1548.5764   
    QMUNI4 ZMUNI9_PCT 983.6197    
    QMUNI5 OBJROW 1.          
    QMUNI5 ZMUNI1_PCT 239.1816    
    QMUNI5 ZMUNI2_PCT 145.1492    
    QMUNI5 ZMUNI3_PCT 191.8793    
    QMUNI5 ZMUNI4_PCT 147.3427    
    QMUNI5 ZMUNI5_PCT 35819.6259  
    QMUNI5 ZMUNI6_PCT 3009.0332   
    QMUNI5 ZMUNI7_PCT 457.7637    
    QMUNI5 ZMUNI8_PCT 264.5493    
    QMUNI5 ZMUNI9_PCT 175.476     
    QMUNI6 OBJROW 1.          
    QMUNI6 ZMUNI1_PCT 441.742     
    QMUNI6 ZMUNI2_PCT 220.6802    
    QMUNI6 ZMUNI3_PCT 349.9985    
    QMUNI6 ZMUNI4_PCT 257.8735    
    QMUNI6 ZMUNI5_PCT 3024.6735   
    QMUNI6 ZMUNI6_PCT 32971.3821  
    QMUNI6 ZMUNI7_PCT 842.2851    
    QMUNI6 ZMUNI8_PCT 564.1938    
    QMUNI6 ZMUNI9_PCT 378.7994    
    QMUNI7 OBJROW 1.          
    QMUNI7 ZMUNI1_PCT 2039.9094   
    QMUNI7 ZMUNI2_PCT 1455.1163   
    QMUNI7 ZMUNI3_PCT 1874.5422   
    QMUNI7 ZMUNI4_PCT 1509.5711   
    QMUNI7 ZMUNI5_PCT 1084.137    
    QMUNI7 ZMUNI6_PCT 1284.4085   
    QMUNI7 ZMUNI7_PCT 32242.5842  
    QMUNI7 ZMUNI8_PCT 3500.7477   
    QMUNI7 ZMUNI9_PCT 2037.0483   
    QMUNI8 OBJROW 1.          
    QMUNI8 ZMUNI1_PCT 1250.0763   
    QMUNI8 ZMUNI2_PCT 1074.2188   
    QMUNI8 ZMUNI3_PCT 1256.3705   
    QMUNI8 ZMUNI4_PCT 994.2055    
    QMUNI8 ZMUNI5_PCT 314.3311    
    QMUNI8 ZMUNI6_PCT 439.4531    
    QMUNI8 ZMUNI7_PCT 2713.7756   
    QMUNI8 ZMUNI8_PCT 29175.9491  
    QMUNI8 ZMUNI9_PCT 1528.1677   
    QMUNI9 OBJROW 1.          
    QMUNI9 ZMUNI1_PCT 769.8059    
    QMUNI9 ZMUNI2_PCT 1049.4232   
    QMUNI9 ZMUNI3_PCT 852.7756    
    QMUNI9 ZMUNI4_PCT 743.6752    
    QMUNI9 ZMUNI5_PCT 669.6702    
    QMUNI9 ZMUNI6_PCT 672.1496    
    QMUNI9 ZMUNI7_PCT 1304.245    
    QMUNI9 ZMUNI8_PCT 1746.9407   
    QMUNI9 ZMUNI9_PCT 28202.4383  
RHS
    RHS ZMUNI1_PCT -0.048608361
    RHS ZMUNI2_PCT  -0.11233952
    RHS ZMUNI3_PCT -0.092609288
    RHS ZMUNI4_PCT 1.5998877853
    RHS ZMUNI5_PCT  -0.16750023
    RHS ZMUNI6_PCT  -0.31919539
    RHS ZMUNI7_PCT 0.2271489377
    RHS ZMUNI8_PCT 0.0063883342
    RHS ZMUNI9_PCT 0.0622362109
BOUNDS
 LO BOUND QMUNI1 -0.000811621
 UP BOUND QMUNI1      1.1e+10
 LO BOUND QMUNI2 -0.000564075
 UP BOUND QMUNI2      1.1e+10
 LO BOUND QMUNI3 -0.00062845 
 UP BOUND QMUNI3      1.1e+10
 LO BOUND QMUNI4 -0.000221351
 UP BOUND QMUNI4      1.1e+10
 LO BOUND QMUNI5 -0.000414872
 UP BOUND QMUNI5      1.1e+10
 LO BOUND QMUNI6 -0.000583659
 UP BOUND QMUNI6      1.1e+10
 LO BOUND QMUNI7 -0.00024    
 UP BOUND QMUNI7      1.1e+10
 LO BOUND QMUNI8 -0.000353282
 UP BOUND QMUNI8      1.1e+10
 LO BOUND QMUNI9 -0.000363981
 UP BOUND QMUNI9      1.1e+10
ENDATA
